
  32    1
  10

   0   0   3 2 3 6 
   3   1   3 18 8 4 
   6   3   4 13 11 8 7 
   7   3   3 11 7 5 
   2   4   4 15 13 10 9 
  10   4   3 15 13 10 
   8   7   2 15 9 
   4   6   2 10 9 
   2   7   4 19 17 14 12 
   2   5   3 17 14 12 
   6   2   3 23 19 14 
   1   2   3 23 20 16 
   6   2   3 23 19 16 
   3   3   2 20 16 
   4   3   1 16 
   8   1   2 24 21 
   3   5   2 24 21 
   9   4   2 26 20 
   7   3   2 24 22 
   8   7   1 21 
   5   5   1 22 
   1   3   4 31 30 28 25 
   9   4   4 31 30 28 25 
   5   5   3 30 29 26 
   2   3   2 29 27 
   9   5   2 28 27 
   5   6   1 32
   4   4   1 32
   7   5   1 32
   2   6   1 32
   5   2   1 32
   0   0   0 
